5
191 26 344  358
264 280 373  773
368 234 179  962
161 477 307  594
42 266 384  56
10
310 100 351  130 198
197 285 116  412 437
446 298 33  130 280
154 90 336  474 219
465 249 308  10 240
159 305 264  197 109
174 97 81  87 162
470 170 194  275 448
254 451 219  84 404
391 125 412  440 280
